NAME : XML100_1232_08
DIMENSION : 101
NB_CLUSTERS : 6
CLUSTERING_ALG : KMedoids
CLUSTERING_PARAMS : k(5)
CLUSTERS
1 0
2 4 5 8 16 17 18 26 27 29 31 39 47 54 55 60 65 78 80 81 89 91 94
3 1 6 12 13 15 22 25 30 34 41 43 46 48 49 58 63 68 85 93 96 97
4 2 3 7 21 23 28 32 33 38 40 42 44 51 64 67 70 73 75 77 79 83 84 86 99
5 9 11 14 19 20 24 36 37 45 52 53 57 59 62 66 71 72 76 87 95 98
6 10 35 50 56 61 69 74 82 88 90 92 100
EOF